Version identifier: 22.1.1.0 | 2022-11-28 | 9160aff4d
CPXPARAM_Threads                                 8
CPXPARAM_Emphasis_MIP                            5
CPXPARAM_TimeLimit                               3600
CPXPARAM_MIP_Tolerances_MIPGap                   0.029999999999999999
Tried aggregator 2 times.
MIP Presolve eliminated 186 rows and 92 columns.
Aggregator did 50 substitutions.
Reduced MIP has 516 rows, 421 columns, and 1915 nonzeros.
Reduced MIP has 342 binaries, 79 generals, 0 SOSs, and 0 indicators.
Presolve time = 0.00 sec. (1.87 ticks)
Probing fixed 19 vars, tightened 18 bounds.
Probing time = 0.00 sec. (0.90 ticks)
Tried aggregator 1 time.
Detecting symmetries...
MIP Presolve eliminated 27 rows and 19 columns.
Reduced MIP has 489 rows, 402 columns, and 1810 nonzeros.
Reduced MIP has 323 binaries, 79 generals, 0 SOSs, and 0 indicators.
Presolve time = 0.00 sec. (1.19 ticks)
Probing time = 0.00 sec. (0.79 ticks)
Clique table members: 327.
MIP emphasis: heuristic.
MIP search method: dynamic search.
Parallel mode: deterministic, using up to 8 threads.
Root relaxation solution time = 0.01 sec. (2.05 ticks)

        Nodes                                         Cuts/
   Node  Left     Objective  IInf  Best Integer    Best Bound    ItCnt     Gap

*     0     0      integral     0      265.0000      265.0000      179    0.00%
Elapsed time = 0.03 sec. (11.51 ticks, tree = 0.00 MB, solutions = 1)
Version identifier: 22.1.1.0 | 2022-11-28 | 9160aff4d
CPXPARAM_Threads                                 8
CPXPARAM_Emphasis_MIP                            5
CPXPARAM_TimeLimit                               3600
CPXPARAM_MIP_Tolerances_MIPGap                   0.029999999999999999
Tried aggregator 2 times.
MIP Presolve eliminated 271 rows and 159 columns.
Aggregator did 56 substitutions.
Reduced MIP has 766 rows, 621 columns, and 2854 nonzeros.
Reduced MIP has 505 binaries, 116 generals, 0 SOSs, and 0 indicators.
Presolve time = 0.00 sec. (2.74 ticks)
Probing fixed 29 vars, tightened 28 bounds.
Probing time = 0.00 sec. (1.87 ticks)
Tried aggregator 1 time.
Detecting symmetries...
MIP Presolve eliminated 40 rows and 30 columns.
Reduced MIP has 726 rows, 591 columns, and 2691 nonzeros.
Reduced MIP has 475 binaries, 116 generals, 0 SOSs, and 0 indicators.
Presolve time = 0.00 sec. (1.83 ticks)
Probing time = 0.00 sec. (1.67 ticks)
Clique table members: 876.
MIP emphasis: heuristic.
MIP search method: dynamic search.
Parallel mode: deterministic, using up to 8 threads.
Root relaxation solution time = 0.02 sec. (4.17 ticks)

        Nodes                                         Cuts/
   Node  Left     Objective  IInf  Best Integer    Best Bound    ItCnt     Gap

*     0     0      integral     0      290.0000      290.0000      304    0.00%
Elapsed time = 0.05 sec. (21.58 ticks, tree = 0.00 MB, solutions = 1)
Version identifier: 22.1.1.0 | 2022-11-28 | 9160aff4d
CPXPARAM_Threads                                 8
CPXPARAM_Emphasis_MIP                            5
CPXPARAM_TimeLimit                               3600
CPXPARAM_MIP_Tolerances_MIPGap                   0.029999999999999999
Tried aggregator 2 times.
MIP Presolve eliminated 307 rows and 183 columns.
Aggregator did 59 substitutions.
Reduced MIP has 1048 rows, 854 columns, and 3910 nonzeros.
Reduced MIP has 697 binaries, 157 generals, 0 SOSs, and 0 indicators.
Presolve time = 0.01 sec. (3.59 ticks)
Probing fixed 65 vars, tightened 61 bounds.
Probing time = 0.00 sec. (2.96 ticks)
Tried aggregator 1 time.
Detecting symmetries...
MIP Presolve eliminated 87 rows and 69 columns.
MIP Presolve modified 4 coefficients.
Reduced MIP has 961 rows, 785 columns, and 3551 nonzeros.
Reduced MIP has 628 binaries, 157 generals, 0 SOSs, and 0 indicators.
Presolve time = 0.00 sec. (3.39 ticks)
Probing fixed 5 vars, tightened 5 bounds.
Probing time = 0.00 sec. (2.49 ticks)
Clique table members: 1725.
MIP emphasis: heuristic.
MIP search method: dynamic search.
Parallel mode: deterministic, using up to 8 threads.
Root relaxation solution time = 0.02 sec. (6.65 ticks)

        Nodes                                         Cuts/
   Node  Left     Objective  IInf  Best Integer    Best Bound    ItCnt     Gap

*     0     0      integral     0      305.0000      305.0000      397    0.00%
Elapsed time = 0.07 sec. (43.63 ticks, tree = 0.00 MB, solutions = 1)

Root node processing (before b&c):
  Real time             =    0.05 sec. (21.60 ticks)
Parallel b&c, 8 threads:
  Real time             =    0.00 sec. (0.00 ticks)
  Sync time (average)   =    0.00 sec.
  Wait time (average)   =    0.00 sec.
                          ------------
Total (root+branch&cut) =    0.05 sec. (21.60 ticks)
Version identifier: 22.1.1.0 | 2022-11-28 | 9160aff4d
CPXPARAM_Threads                                 8
CPXPARAM_Emphasis_MIP                            5
CPXPARAM_TimeLimit                               3600
CPXPARAM_MIP_Tolerances_MIPGap                   0.029999999999999999
Tried aggregator 2 times.
MIP Presolve eliminated 372 rows and 232 columns.
Aggregator did 65 substitutions.
Reduced MIP has 1186 rows, 968 columns, and 4442 nonzeros.
Reduced MIP has 791 binaries, 177 generals, 0 SOSs, and 0 indicators.
Presolve time = 0.01 sec. (4.07 ticks)
Probing fixed 73 vars, tightened 67 bounds.
Probing time = 0.01 sec. (3.68 ticks)
Tried aggregator 1 time.
Detecting symmetries...
MIP Presolve eliminated 98 rows and 76 columns.
Reduced MIP has 1088 rows, 892 columns, and 4038 nonzeros.
Reduced MIP has 715 binaries, 177 generals, 0 SOSs, and 0 indicators.
Presolve time = 0.00 sec. (2.73 ticks)
Probing fixed 6 vars, tightened 6 bounds.
Probing time = 0.00 sec. (3.18 ticks)
Clique table members: 2368.
MIP emphasis: heuristic.
MIP search method: dynamic search.
Parallel mode: deterministic, using up to 8 threads.
Root relaxation solution time = 0.02 sec. (5.74 ticks)

        Nodes                                         Cuts/
   Node  Left     Objective  IInf  Best Integer    Best Bound    ItCnt     Gap

*     0     0      integral     0      310.0000      310.0000      364    0.00%
Elapsed time = 0.07 sec. (36.59 ticks, tree = 0.00 MB, solutions = 1)
Version identifier: 22.1.1.0 | 2022-11-28 | 9160aff4d
CPXPARAM_Threads                                 8
CPXPARAM_Emphasis_MIP                            5
CPXPARAM_TimeLimit                               3600
CPXPARAM_MIP_Tolerances_MIPGap                   0.029999999999999999
Tried aggregator 2 times.
MIP Presolve eliminated 389 rows and 238 columns.
Aggregator did 71 substitutions.
Reduced MIP has 1243 rows, 1017 columns, and 4634 nonzeros.
Reduced MIP has 832 binaries, 185 generals, 0 SOSs, and 0 indicators.
Presolve time = 0.01 sec. (4.25 ticks)
Probing fixed 77 vars, tightened 69 bounds.
Probing time = 0.01 sec. (4.08 ticks)
Tried aggregator 1 time.
Detecting symmetries...
MIP Presolve eliminated 106 rows and 80 columns.
Reduced MIP has 1137 rows, 937 columns, and 4211 nonzeros.
Reduced MIP has 752 binaries, 185 generals, 0 SOSs, and 0 indicators.
Presolve time = 0.00 sec. (2.85 ticks)
Probing fixed 6 vars, tightened 6 bounds.
Probing time = 0.00 sec. (3.56 ticks)
Clique table members: 2842.
MIP emphasis: heuristic.
MIP search method: dynamic search.
Parallel mode: deterministic, using up to 8 threads.
Root relaxation solution time = 0.03 sec. (5.92 ticks)

        Nodes                                         Cuts/
   Node  Left     Objective  IInf  Best Integer    Best Bound    ItCnt     Gap

*     0     0      integral     0      310.0000      310.0000      331    0.00%
Elapsed time = 0.09 sec. (51.71 ticks, tree = 0.00 MB, solutions = 1)

Root node processing (before b&c):
  Real time             =    0.07 sec. (36.63 ticks)
Parallel b&c, 8 threads:
  Real time             =    0.00 sec. (0.00 ticks)
  Sync time (average)   =    0.00 sec.
  Wait time (average)   =    0.00 sec.
                          ------------
Total (root+branch&cut) =    0.07 sec. (36.63 ticks)

Root node processing (before b&c):
  Real time             =    0.07 sec. (43.66 ticks)
Parallel b&c, 8 threads:
  Real time             =    0.00 sec. (0.00 ticks)
  Sync time (average)   =    0.00 sec.
  Wait time (average)   =    0.00 sec.
                          ------------
Total (root+branch&cut) =    0.07 sec. (43.66 ticks)
Version identifier: 22.1.1.0 | 2022-11-28 | 9160aff4d
CPXPARAM_Threads                                 8
CPXPARAM_Emphasis_MIP                            5
CPXPARAM_TimeLimit                               3600
CPXPARAM_MIP_Tolerances_MIPGap                   0.029999999999999999
Tried aggregator 3 times.
MIP Presolve eliminated 562 rows and 346 columns.
Aggregator did 116 substitutions.
Reduced MIP has 1681 rows, 1347 columns, and 6309 nonzeros.
Reduced MIP has 1148 binaries, 199 generals, 0 SOSs, and 0 indicators.
Presolve time = 0.02 sec. (9.06 ticks)
Probing fixed 150 vars, tightened 132 bounds.
Probing time = 0.01 sec. (6.12 ticks)
Tried aggregator 1 time.
MIP Presolve eliminated 215 rows and 157 columns.
Reduced MIP has 1466 rows, 1190 columns, and 5469 nonzeros.
Reduced MIP has 991 binaries, 199 generals, 0 SOSs, and 0 indicators.
Presolve time = 0.00 sec. (2.77 ticks)
Probing fixed 6 vars, tightened 6 bounds.
Probing time = 0.01 sec. (4.98 ticks)
Tried aggregator 1 time.
Detecting symmetries...
MIP Presolve eliminated 6 rows and 6 columns.
Reduced MIP has 1460 rows, 1184 columns, and 5439 nonzeros.
Reduced MIP has 985 binaries, 199 generals, 0 SOSs, and 0 indicators.
Presolve time = 0.00 sec. (3.49 ticks)
Probing time = 0.00 sec. (2.43 ticks)
Clique table members: 3632.
MIP emphasis: heuristic.
MIP search method: dynamic search.
Parallel mode: deterministic, using up to 8 threads.
Root relaxation solution time = 0.03 sec. (13.11 ticks)

        Nodes                                         Cuts/
   Node  Left     Objective  IInf  Best Integer    Best Bound    ItCnt     Gap

*     0     0      integral     0      310.0000      310.0000      549    0.00%
Elapsed time = 0.12 sec. (80.59 ticks, tree = 0.00 MB, solutions = 1)
Version identifier: 22.1.1.0 | 2022-11-28 | 9160aff4d
CPXPARAM_Threads                                 8
CPXPARAM_Emphasis_MIP                            5
CPXPARAM_TimeLimit                               3600
CPXPARAM_MIP_Tolerances_MIPGap                   0.029999999999999999
Tried aggregator 3 times.
MIP Presolve eliminated 604 rows and 374 columns.
Aggregator did 116 substitutions.
Reduced MIP has 1701 rows, 1363 columns, and 6380 nonzeros.
Reduced MIP has 1161 binaries, 202 generals, 0 SOSs, and 0 indicators.
Presolve time = 0.01 sec. (7.22 ticks)
Probing fixed 153 vars, tightened 135 bounds.
Probing time = 0.01 sec. (6.51 ticks)
Tried aggregator 1 time.
MIP Presolve eliminated 220 rows and 160 columns.
Reduced MIP has 1481 rows, 1203 columns, and 5524 nonzeros.
Reduced MIP has 1001 binaries, 202 generals, 0 SOSs, and 0 indicators.
Presolve time = 0.00 sec. (2.80 ticks)
Probing time = 0.00 sec. (2.48 ticks)
Tried aggregator 1 time.
Detecting symmetries...
Reduced MIP has 1481 rows, 1203 columns, and 5524 nonzeros.
Reduced MIP has 1001 binaries, 202 generals, 0 SOSs, and 0 indicators.
Presolve time = 0.00 sec. (3.47 ticks)
Probing fixed 6 vars, tightened 6 bounds.
Probing time = 0.01 sec. (5.25 ticks)
Clique table members: 3847.
MIP emphasis: heuristic.
MIP search method: dynamic search.
Parallel mode: deterministic, using up to 8 threads.
Root relaxation solution time = 0.03 sec. (11.54 ticks)

        Nodes                                         Cuts/
   Node  Left     Objective  IInf  Best Integer    Best Bound    ItCnt     Gap

*     0     0      integral     0      330.0000      330.0000      508    0.00%
Elapsed time = 0.11 sec. (72.57 ticks, tree = 0.00 MB, solutions = 1)
Version identifier: 22.1.1.0 | 2022-11-28 | 9160aff4d
CPXPARAM_Threads                                 8
CPXPARAM_Emphasis_MIP                            5
CPXPARAM_TimeLimit                               3600
CPXPARAM_MIP_Tolerances_MIPGap                   0.029999999999999999
Tried aggregator 3 times.
MIP Presolve eliminated 633 rows and 389 columns.
Aggregator did 136 substitutions.
Reduced MIP has 1849 rows, 1474 columns, and 6961 nonzeros.
Reduced MIP has 1256 binaries, 218 generals, 0 SOSs, and 0 indicators.
Presolve time = 0.01 sec. (7.78 ticks)
Probing fixed 210 vars, tightened 191 bounds.
Probing time = 0.01 sec. (7.54 ticks)
Tried aggregator 2 times.
MIP Presolve eliminated 300 rows and 219 columns.
Aggregator did 1 substitutions.
Reduced MIP has 1548 rows, 1254 columns, and 5781 nonzeros.
Reduced MIP has 1036 binaries, 218 generals, 0 SOSs, and 0 indicators.
Presolve time = 0.01 sec. (4.85 ticks)
Probing time = 0.00 sec. (2.59 ticks)
Tried aggregator 1 time.
Detecting symmetries...
Reduced MIP has 1548 rows, 1254 columns, and 5781 nonzeros.
Reduced MIP has 1036 binaries, 218 generals, 0 SOSs, and 0 indicators.
Presolve time = 0.00 sec. (3.60 ticks)
Probing time = 0.00 sec. (2.59 ticks)
Clique table members: 4201.
MIP emphasis: heuristic.
MIP search method: dynamic search.
Parallel mode: deterministic, using up to 8 threads.
Root relaxation solution time = 0.04 sec. (21.43 ticks)

        Nodes                                         Cuts/
   Node  Left     Objective  IInf  Best Integer    Best Bound    ItCnt     Gap

*     0     0      integral     0      330.0000      330.0000      756    0.00%
Elapsed time = 0.13 sec. (89.31 ticks, tree = 0.00 MB, solutions = 1)
Version identifier: 22.1.1.0 | 2022-11-28 | 9160aff4d
CPXPARAM_Threads                                 8
CPXPARAM_Emphasis_MIP                            5
CPXPARAM_TimeLimit                               3600
CPXPARAM_MIP_Tolerances_MIPGap                   0.029999999999999999
Tried aggregator 3 times.
MIP Presolve eliminated 649 rows and 398 columns.
Aggregator did 141 substitutions.
Reduced MIP has 1873 rows, 1488 columns, and 7046 nonzeros.
Reduced MIP has 1267 binaries, 221 generals, 0 SOSs, and 0 indicators.
Presolve time = 0.01 sec. (7.87 ticks)
Probing fixed 212 vars, tightened 193 bounds.
Probing time = 0.01 sec. (7.74 ticks)
Tried aggregator 2 times.
MIP Presolve eliminated 304 rows and 221 columns.
Aggregator did 1 substitutions.
Reduced MIP has 1568 rows, 1266 columns, and 5851 nonzeros.
Reduced MIP has 1045 binaries, 221 generals, 0 SOSs, and 0 indicators.
Presolve time = 0.01 sec. (4.90 ticks)
Probing time = 0.00 sec. (2.61 ticks)
Tried aggregator 1 time.
Detecting symmetries...
Reduced MIP has 1568 rows, 1266 columns, and 5851 nonzeros.
Reduced MIP has 1045 binaries, 221 generals, 0 SOSs, and 0 indicators.
Presolve time = 0.00 sec. (3.64 ticks)
Probing time = 0.00 sec. (2.61 ticks)
Clique table members: 4184.
MIP emphasis: heuristic.
MIP search method: dynamic search.
Parallel mode: deterministic, using up to 8 threads.
Root relaxation solution time = 0.04 sec. (17.97 ticks)

        Nodes                                         Cuts/
   Node  Left     Objective  IInf  Best Integer    Best Bound    ItCnt     Gap

*     0     0      integral     0      330.0000      330.0000      738    0.00%
Elapsed time = 0.12 sec. (83.79 ticks, tree = 0.00 MB, solutions = 1)
Version identifier: 22.1.1.0 | 2022-11-28 | 9160aff4d
CPXPARAM_Threads                                 8
CPXPARAM_Emphasis_MIP                            5
CPXPARAM_TimeLimit                               3600
CPXPARAM_MIP_Tolerances_MIPGap                   0.029999999999999999
Tried aggregator 2 times.
MIP Presolve eliminated 843 rows and 527 columns.
Aggregator did 185 substitutions.
Reduced MIP has 2424 rows, 1904 columns, and 9140 nonzeros.
Reduced MIP has 1668 binaries, 236 generals, 0 SOSs, and 0 indicators.
Presolve time = 0.01 sec. (8.45 ticks)
Probing fixed 218 vars, tightened 195 bounds.
Probing time = 0.02 sec. (14.05 ticks)
Tried aggregator 3 times.
MIP Presolve eliminated 326 rows and 228 columns.
Aggregator did 5 substitutions.
Reduced MIP has 2093 rows, 1671 columns, and 7888 nonzeros.
Reduced MIP has 1435 binaries, 236 generals, 0 SOSs, and 0 indicators.
Presolve time = 0.01 sec. (11.23 ticks)
Probing time = 0.00 sec. (2.90 ticks)
Tried aggregator 1 time.
Detecting symmetries...
Reduced MIP has 2093 rows, 1671 columns, and 7888 nonzeros.
Reduced MIP has 1435 binaries, 236 generals, 0 SOSs, and 0 indicators.
Presolve time = 0.01 sec. (4.87 ticks)
Probing time = 0.00 sec. (2.90 ticks)
Clique table members: 5541.
MIP emphasis: heuristic.
MIP search method: dynamic search.
Parallel mode: deterministic, using up to 8 threads.
Root relaxation solution time = 0.07 sec. (38.38 ticks)

        Nodes                                         Cuts/
   Node  Left     Objective  IInf  Best Integer    Best Bound    ItCnt     Gap

      0     0      387.5000    95                    387.5000     1101         
*     0+    0                          402.0000      387.5000             3.61%

Zero-half cuts applied:  5
Lift and project cuts applied:  1
Gomory fractional cuts applied:  7

Root node processing (before b&c):
  Real time             =    0.31 sec. (251.04 ticks)
Parallel b&c, 8 threads:
  Real time             =    0.00 sec. (0.00 ticks)
  Sync time (average)   =    0.00 sec.
  Wait time (average)   =    0.00 sec.
                          ------------
Total (root+branch&cut) =    0.31 sec. (251.04 ticks)

Root node processing (before b&c):
  Real time             =    0.12 sec. (83.85 ticks)
Parallel b&c, 8 threads:
  Real time             =    0.00 sec. (0.00 ticks)
  Sync time (average)   =    0.00 sec.
  Wait time (average)   =    0.00 sec.
                          ------------
Total (root+branch&cut) =    0.12 sec. (83.85 ticks)

Root node processing (before b&c):
  Real time             =    0.13 sec. (89.38 ticks)
Parallel b&c, 8 threads:
  Real time             =    0.00 sec. (0.00 ticks)
  Sync time (average)   =    0.00 sec.
  Wait time (average)   =    0.00 sec.
                          ------------
Total (root+branch&cut) =    0.13 sec. (89.38 ticks)

Root node processing (before b&c):
  Real time             =    0.11 sec. (72.63 ticks)
Parallel b&c, 8 threads:
  Real time             =    0.00 sec. (0.00 ticks)
  Sync time (average)   =    0.00 sec.
  Wait time (average)   =    0.00 sec.
                          ------------
Total (root+branch&cut) =    0.11 sec. (72.63 ticks)

Root node processing (before b&c):
  Real time             =    0.12 sec. (80.65 ticks)
Parallel b&c, 8 threads:
  Real time             =    0.00 sec. (0.00 ticks)
  Sync time (average)   =    0.00 sec.
  Wait time (average)   =    0.00 sec.
                          ------------
Total (root+branch&cut) =    0.12 sec. (80.65 ticks)

Root node processing (before b&c):
  Real time             =    0.09 sec. (51.76 ticks)
Parallel b&c, 8 threads:
  Real time             =    0.00 sec. (0.00 ticks)
  Sync time (average)   =    0.00 sec.
  Wait time (average)   =    0.00 sec.
                          ------------
Total (root+branch&cut) =    0.09 sec. (51.76 ticks)

Root node processing (before b&c):
  Real time             =    0.03 sec. (11.53 ticks)
Parallel b&c, 8 threads:
  Real time             =    0.00 sec. (0.00 ticks)
  Sync time (average)   =    0.00 sec.
  Wait time (average)   =    0.00 sec.
                          ------------
Total (root+branch&cut) =    0.03 sec. (11.53 ticks)
Version identifier: 22.1.1.0 | 2022-11-28 | 9160aff4d
CPXPARAM_Threads                                 8
CPXPARAM_Emphasis_MIP                            5
CPXPARAM_TimeLimit                               3600
CPXPARAM_MIP_Tolerances_MIPGap                   0.029999999999999999
Tried aggregator 2 times.
MIP Presolve eliminated 186 rows and 92 columns.
Aggregator did 50 substitutions.
Reduced MIP has 516 rows, 421 columns, and 1915 nonzeros.
Reduced MIP has 342 binaries, 79 generals, 0 SOSs, and 0 indicators.
Presolve time = 0.00 sec. (1.87 ticks)
Probing fixed 19 vars, tightened 18 bounds.
Probing time = 0.00 sec. (0.90 ticks)
Tried aggregator 1 time.
Detecting symmetries...
MIP Presolve eliminated 27 rows and 19 columns.
Reduced MIP has 489 rows, 402 columns, and 1810 nonzeros.
Reduced MIP has 323 binaries, 79 generals, 0 SOSs, and 0 indicators.
Presolve time = 0.00 sec. (1.19 ticks)
Probing time = 0.00 sec. (0.79 ticks)
Clique table members: 327.
MIP emphasis: heuristic.
MIP search method: dynamic search.
Parallel mode: deterministic, using up to 8 threads.
Root relaxation solution time = 0.01 sec. (2.05 ticks)

        Nodes                                         Cuts/
   Node  Left     Objective  IInf  Best Integer    Best Bound    ItCnt     Gap

*     0     0      integral     0      265.0000      265.0000      179    0.00%
Elapsed time = 0.05 sec. (11.51 ticks, tree = 0.00 MB, solutions = 1)
Version identifier: 22.1.1.0 | 2022-11-28 | 9160aff4d
CPXPARAM_Threads                                 8
CPXPARAM_Emphasis_MIP                            5
CPXPARAM_TimeLimit                               3600
CPXPARAM_MIP_Tolerances_MIPGap                   0.029999999999999999
Tried aggregator 2 times.
MIP Presolve eliminated 271 rows and 159 columns.
Aggregator did 56 substitutions.
Reduced MIP has 766 rows, 621 columns, and 2854 nonzeros.
Reduced MIP has 505 binaries, 116 generals, 0 SOSs, and 0 indicators.
Presolve time = 0.00 sec. (2.74 ticks)
Probing fixed 29 vars, tightened 28 bounds.
Probing time = 0.00 sec. (1.87 ticks)
Tried aggregator 1 time.
Detecting symmetries...
MIP Presolve eliminated 40 rows and 30 columns.
Reduced MIP has 726 rows, 591 columns, and 2691 nonzeros.
Reduced MIP has 475 binaries, 116 generals, 0 SOSs, and 0 indicators.
Presolve time = 0.00 sec. (1.83 ticks)
Probing time = 0.00 sec. (1.67 ticks)
Clique table members: 876.
MIP emphasis: heuristic.
MIP search method: dynamic search.
Parallel mode: deterministic, using up to 8 threads.
Root relaxation solution time = 0.02 sec. (4.17 ticks)

        Nodes                                         Cuts/
   Node  Left     Objective  IInf  Best Integer    Best Bound    ItCnt     Gap

*     0     0      integral     0      290.0000      290.0000      304    0.00%
Elapsed time = 0.05 sec. (21.58 ticks, tree = 0.00 MB, solutions = 1)
Version identifier: 22.1.1.0 | 2022-11-28 | 9160aff4d
CPXPARAM_Threads                                 8
CPXPARAM_Emphasis_MIP                            5
CPXPARAM_TimeLimit                               3600
CPXPARAM_MIP_Tolerances_MIPGap                   0.029999999999999999
Tried aggregator 2 times.
MIP Presolve eliminated 307 rows and 183 columns.
Aggregator did 59 substitutions.
Reduced MIP has 1048 rows, 854 columns, and 3910 nonzeros.
Reduced MIP has 697 binaries, 157 generals, 0 SOSs, and 0 indicators.
Presolve time = 0.01 sec. (3.59 ticks)
Probing fixed 65 vars, tightened 61 bounds.
Probing time = 0.00 sec. (2.96 ticks)
Tried aggregator 1 time.
Detecting symmetries...
MIP Presolve eliminated 87 rows and 69 columns.
MIP Presolve modified 4 coefficients.
Reduced MIP has 961 rows, 785 columns, and 3551 nonzeros.
Reduced MIP has 628 binaries, 157 generals, 0 SOSs, and 0 indicators.
Presolve time = 0.00 sec. (3.39 ticks)
Probing fixed 5 vars, tightened 5 bounds.
Probing time = 0.00 sec. (2.49 ticks)
Clique table members: 1725.
MIP emphasis: heuristic.
MIP search method: dynamic search.
Parallel mode: deterministic, using up to 8 threads.
Root relaxation solution time = 0.02 sec. (6.65 ticks)

        Nodes                                         Cuts/
   Node  Left     Objective  IInf  Best Integer    Best Bound    ItCnt     Gap

*     0     0      integral     0      305.0000      305.0000      397    0.00%
Elapsed time = 0.08 sec. (43.63 ticks, tree = 0.00 MB, solutions = 1)

Root node processing (before b&c):
  Real time             =    0.05 sec. (21.60 ticks)
Parallel b&c, 8 threads:
  Real time             =    0.00 sec. (0.00 ticks)
  Sync time (average)   =    0.00 sec.
  Wait time (average)   =    0.00 sec.
                          ------------
Total (root+branch&cut) =    0.05 sec. (21.60 ticks)
Version identifier: 22.1.1.0 | 2022-11-28 | 9160aff4d
CPXPARAM_Threads                                 8
CPXPARAM_Emphasis_MIP                            5
CPXPARAM_TimeLimit                               3600
CPXPARAM_MIP_Tolerances_MIPGap                   0.029999999999999999
Tried aggregator 2 times.
MIP Presolve eliminated 372 rows and 232 columns.
Aggregator did 65 substitutions.
Reduced MIP has 1186 rows, 968 columns, and 4442 nonzeros.
Reduced MIP has 791 binaries, 177 generals, 0 SOSs, and 0 indicators.
Presolve time = 0.01 sec. (4.07 ticks)
Probing fixed 73 vars, tightened 67 bounds.
Probing time = 0.01 sec. (3.68 ticks)
Tried aggregator 1 time.
Detecting symmetries...
MIP Presolve eliminated 98 rows and 76 columns.
Reduced MIP has 1088 rows, 892 columns, and 4038 nonzeros.
Reduced MIP has 715 binaries, 177 generals, 0 SOSs, and 0 indicators.
Presolve time = 0.00 sec. (2.73 ticks)
Probing fixed 6 vars, tightened 6 bounds.
Probing time = 0.00 sec. (3.18 ticks)
Clique table members: 2368.
MIP emphasis: heuristic.
MIP search method: dynamic search.
Parallel mode: deterministic, using up to 8 threads.
Root relaxation solution time = 0.02 sec. (5.74 ticks)

        Nodes                                         Cuts/
   Node  Left     Objective  IInf  Best Integer    Best Bound    ItCnt     Gap

*     0     0      integral     0      310.0000      310.0000      364    0.00%
Elapsed time = 0.06 sec. (36.59 ticks, tree = 0.00 MB, solutions = 1)
Version identifier: 22.1.1.0 | 2022-11-28 | 9160aff4d
CPXPARAM_Threads                                 8
CPXPARAM_Emphasis_MIP                            5
CPXPARAM_TimeLimit                               3600
CPXPARAM_MIP_Tolerances_MIPGap                   0.029999999999999999
Tried aggregator 2 times.
MIP Presolve eliminated 389 rows and 238 columns.
Aggregator did 71 substitutions.
Reduced MIP has 1243 rows, 1017 columns, and 4634 nonzeros.
Reduced MIP has 832 binaries, 185 generals, 0 SOSs, and 0 indicators.
Presolve time = 0.01 sec. (4.25 ticks)
Probing fixed 77 vars, tightened 69 bounds.
Probing time = 0.01 sec. (4.08 ticks)
Tried aggregator 1 time.
Detecting symmetries...
MIP Presolve eliminated 106 rows and 80 columns.
Reduced MIP has 1137 rows, 937 columns, and 4211 nonzeros.
Reduced MIP has 752 binaries, 185 generals, 0 SOSs, and 0 indicators.
Presolve time = 0.00 sec. (2.85 ticks)
Probing fixed 6 vars, tightened 6 bounds.
Probing time = 0.01 sec. (3.56 ticks)
Clique table members: 2842.
MIP emphasis: heuristic.
MIP search method: dynamic search.
Parallel mode: deterministic, using up to 8 threads.
Root relaxation solution time = 0.03 sec. (5.92 ticks)

        Nodes                                         Cuts/
   Node  Left     Objective  IInf  Best Integer    Best Bound    ItCnt     Gap

*     0     0      integral     0      310.0000      310.0000      331    0.00%
Elapsed time = 0.08 sec. (51.71 ticks, tree = 0.00 MB, solutions = 1)

Root node processing (before b&c):
  Real time             =    0.06 sec. (36.63 ticks)
Parallel b&c, 8 threads:
  Real time             =    0.00 sec. (0.00 ticks)
  Sync time (average)   =    0.00 sec.
  Wait time (average)   =    0.00 sec.
                          ------------
Total (root+branch&cut) =    0.06 sec. (36.63 ticks)

Root node processing (before b&c):
  Real time             =    0.08 sec. (43.66 ticks)
Parallel b&c, 8 threads:
  Real time             =    0.00 sec. (0.00 ticks)
  Sync time (average)   =    0.00 sec.
  Wait time (average)   =    0.00 sec.
                          ------------
Total (root+branch&cut) =    0.08 sec. (43.66 ticks)
Version identifier: 22.1.1.0 | 2022-11-28 | 9160aff4d
CPXPARAM_Threads                                 8
CPXPARAM_Emphasis_MIP                            5
CPXPARAM_TimeLimit                               3600
CPXPARAM_MIP_Tolerances_MIPGap                   0.029999999999999999
Tried aggregator 3 times.
MIP Presolve eliminated 562 rows and 346 columns.
Aggregator did 116 substitutions.
Reduced MIP has 1681 rows, 1347 columns, and 6309 nonzeros.
Reduced MIP has 1148 binaries, 199 generals, 0 SOSs, and 0 indicators.
Presolve time = 0.02 sec. (9.06 ticks)
Probing fixed 150 vars, tightened 132 bounds.
Probing time = 0.01 sec. (6.12 ticks)
Tried aggregator 1 time.
MIP Presolve eliminated 215 rows and 157 columns.
Reduced MIP has 1466 rows, 1190 columns, and 5469 nonzeros.
Reduced MIP has 991 binaries, 199 generals, 0 SOSs, and 0 indicators.
Presolve time = 0.00 sec. (2.77 ticks)
Probing fixed 6 vars, tightened 6 bounds.
Probing time = 0.01 sec. (4.98 ticks)
Tried aggregator 1 time.
Detecting symmetries...
MIP Presolve eliminated 6 rows and 6 columns.
Reduced MIP has 1460 rows, 1184 columns, and 5439 nonzeros.
Reduced MIP has 985 binaries, 199 generals, 0 SOSs, and 0 indicators.
Presolve time = 0.00 sec. (3.49 ticks)
Probing time = 0.00 sec. (2.43 ticks)
Clique table members: 3632.
MIP emphasis: heuristic.
MIP search method: dynamic search.
Parallel mode: deterministic, using up to 8 threads.
Root relaxation solution time = 0.03 sec. (13.11 ticks)

        Nodes                                         Cuts/
   Node  Left     Objective  IInf  Best Integer    Best Bound    ItCnt     Gap

*     0     0      integral     0      310.0000      310.0000      549    0.00%
Elapsed time = 0.12 sec. (80.59 ticks, tree = 0.00 MB, solutions = 1)
Version identifier: 22.1.1.0 | 2022-11-28 | 9160aff4d
CPXPARAM_Threads                                 8
CPXPARAM_Emphasis_MIP                            5
CPXPARAM_TimeLimit                               3600
CPXPARAM_MIP_Tolerances_MIPGap                   0.029999999999999999
Tried aggregator 3 times.
MIP Presolve eliminated 604 rows and 374 columns.
Aggregator did 116 substitutions.
Reduced MIP has 1701 rows, 1363 columns, and 6380 nonzeros.
Reduced MIP has 1161 binaries, 202 generals, 0 SOSs, and 0 indicators.
Presolve time = 0.01 sec. (7.22 ticks)
Probing fixed 153 vars, tightened 135 bounds.
Probing time = 0.01 sec. (6.51 ticks)
Tried aggregator 1 time.
MIP Presolve eliminated 220 rows and 160 columns.
Reduced MIP has 1481 rows, 1203 columns, and 5524 nonzeros.
Reduced MIP has 1001 binaries, 202 generals, 0 SOSs, and 0 indicators.
Presolve time = 0.00 sec. (2.80 ticks)
Probing time = 0.00 sec. (2.48 ticks)
Tried aggregator 1 time.
Detecting symmetries...
Reduced MIP has 1481 rows, 1203 columns, and 5524 nonzeros.
Reduced MIP has 1001 binaries, 202 generals, 0 SOSs, and 0 indicators.
Presolve time = 0.00 sec. (3.47 ticks)
Probing fixed 6 vars, tightened 6 bounds.
Probing time = 0.01 sec. (5.25 ticks)
Clique table members: 3847.
MIP emphasis: heuristic.
MIP search method: dynamic search.
Parallel mode: deterministic, using up to 8 threads.
Root relaxation solution time = 0.03 sec. (11.54 ticks)

        Nodes                                         Cuts/
   Node  Left     Objective  IInf  Best Integer    Best Bound    ItCnt     Gap

*     0     0      integral     0      330.0000      330.0000      508    0.00%
Elapsed time = 0.11 sec. (72.57 ticks, tree = 0.00 MB, solutions = 1)
Version identifier: 22.1.1.0 | 2022-11-28 | 9160aff4d
CPXPARAM_Threads                                 8
CPXPARAM_Emphasis_MIP                            5
CPXPARAM_TimeLimit                               3600
CPXPARAM_MIP_Tolerances_MIPGap                   0.029999999999999999
Tried aggregator 3 times.
MIP Presolve eliminated 633 rows and 389 columns.
Aggregator did 136 substitutions.
Reduced MIP has 1849 rows, 1474 columns, and 6961 nonzeros.
Reduced MIP has 1256 binaries, 218 generals, 0 SOSs, and 0 indicators.
Presolve time = 0.01 sec. (7.78 ticks)
Probing fixed 210 vars, tightened 191 bounds.
Probing time = 0.01 sec. (7.54 ticks)
Tried aggregator 2 times.
MIP Presolve eliminated 300 rows and 219 columns.
Aggregator did 1 substitutions.
Reduced MIP has 1548 rows, 1254 columns, and 5781 nonzeros.
Reduced MIP has 1036 binaries, 218 generals, 0 SOSs, and 0 indicators.
Presolve time = 0.01 sec. (4.85 ticks)
Probing time = 0.00 sec. (2.59 ticks)
Tried aggregator 1 time.
Detecting symmetries...
Reduced MIP has 1548 rows, 1254 columns, and 5781 nonzeros.
Reduced MIP has 1036 binaries, 218 generals, 0 SOSs, and 0 indicators.
Presolve time = 0.00 sec. (3.60 ticks)
Probing time = 0.00 sec. (2.59 ticks)
Clique table members: 4201.
MIP emphasis: heuristic.
MIP search method: dynamic search.
Parallel mode: deterministic, using up to 8 threads.
Root relaxation solution time = 0.04 sec. (21.43 ticks)

        Nodes                                         Cuts/
   Node  Left     Objective  IInf  Best Integer    Best Bound    ItCnt     Gap

*     0     0      integral     0      330.0000      330.0000      756    0.00%
Elapsed time = 0.13 sec. (89.31 ticks, tree = 0.00 MB, solutions = 1)
Version identifier: 22.1.1.0 | 2022-11-28 | 9160aff4d
CPXPARAM_Threads                                 8
CPXPARAM_Emphasis_MIP                            5
CPXPARAM_TimeLimit                               3600
CPXPARAM_MIP_Tolerances_MIPGap                   0.029999999999999999
Tried aggregator 3 times.
MIP Presolve eliminated 649 rows and 398 columns.
Aggregator did 141 substitutions.
Reduced MIP has 1873 rows, 1488 columns, and 7046 nonzeros.
Reduced MIP has 1267 binaries, 221 generals, 0 SOSs, and 0 indicators.
Presolve time = 0.01 sec. (7.87 ticks)
Probing fixed 212 vars, tightened 193 bounds.
Probing time = 0.01 sec. (7.74 ticks)
Tried aggregator 2 times.
MIP Presolve eliminated 304 rows and 221 columns.
Aggregator did 1 substitutions.
Reduced MIP has 1568 rows, 1266 columns, and 5851 nonzeros.
Reduced MIP has 1045 binaries, 221 generals, 0 SOSs, and 0 indicators.
Presolve time = 0.01 sec. (4.90 ticks)
Probing time = 0.00 sec. (2.61 ticks)
Tried aggregator 1 time.
Detecting symmetries...
Reduced MIP has 1568 rows, 1266 columns, and 5851 nonzeros.
Reduced MIP has 1045 binaries, 221 generals, 0 SOSs, and 0 indicators.
Presolve time = 0.00 sec. (3.64 ticks)
Probing time = 0.00 sec. (2.61 ticks)
Clique table members: 4184.
MIP emphasis: heuristic.
MIP search method: dynamic search.
Parallel mode: deterministic, using up to 8 threads.
Root relaxation solution time = 0.04 sec. (17.97 ticks)

        Nodes                                         Cuts/
   Node  Left     Objective  IInf  Best Integer    Best Bound    ItCnt     Gap

*     0     0      integral     0      330.0000      330.0000      738    0.00%
Elapsed time = 0.12 sec. (83.79 ticks, tree = 0.00 MB, solutions = 1)
Version identifier: 22.1.1.0 | 2022-11-28 | 9160aff4d
CPXPARAM_Threads                                 8
CPXPARAM_Emphasis_MIP                            5
CPXPARAM_TimeLimit                               3600
CPXPARAM_MIP_Tolerances_MIPGap                   0.029999999999999999
Tried aggregator 2 times.
MIP Presolve eliminated 843 rows and 527 columns.
Aggregator did 185 substitutions.
Reduced MIP has 2424 rows, 1904 columns, and 9140 nonzeros.
Reduced MIP has 1668 binaries, 236 generals, 0 SOSs, and 0 indicators.
Presolve time = 0.01 sec. (8.45 ticks)
Probing fixed 218 vars, tightened 195 bounds.
Probing time = 0.02 sec. (14.05 ticks)
Tried aggregator 3 times.
MIP Presolve eliminated 326 rows and 228 columns.
Aggregator did 5 substitutions.
Reduced MIP has 2093 rows, 1671 columns, and 7888 nonzeros.
Reduced MIP has 1435 binaries, 236 generals, 0 SOSs, and 0 indicators.
Presolve time = 0.01 sec. (11.23 ticks)
Probing time = 0.00 sec. (2.90 ticks)
Tried aggregator 1 time.
Detecting symmetries...
Reduced MIP has 2093 rows, 1671 columns, and 7888 nonzeros.
Reduced MIP has 1435 binaries, 236 generals, 0 SOSs, and 0 indicators.
Presolve time = 0.01 sec. (4.87 ticks)
Probing time = 0.00 sec. (2.90 ticks)
Clique table members: 5541.
MIP emphasis: heuristic.
MIP search method: dynamic search.
Parallel mode: deterministic, using up to 8 threads.
Root relaxation solution time = 0.07 sec. (38.38 ticks)

        Nodes                                         Cuts/
   Node  Left     Objective  IInf  Best Integer    Best Bound    ItCnt     Gap

      0     0      387.5000    95                    387.5000     1101         
*     0+    0                          402.0000      387.5000             3.61%

Zero-half cuts applied:  5
Lift and project cuts applied:  1
Gomory fractional cuts applied:  7

Root node processing (before b&c):
  Real time             =    0.32 sec. (251.04 ticks)
Parallel b&c, 8 threads:
  Real time             =    0.00 sec. (0.00 ticks)
  Sync time (average)   =    0.00 sec.
  Wait time (average)   =    0.00 sec.
                          ------------
Total (root+branch&cut) =    0.32 sec. (251.04 ticks)

Root node processing (before b&c):
  Real time             =    0.13 sec. (83.85 ticks)
Parallel b&c, 8 threads:
  Real time             =    0.00 sec. (0.00 ticks)
  Sync time (average)   =    0.00 sec.
  Wait time (average)   =    0.00 sec.
                          ------------
Total (root+branch&cut) =    0.13 sec. (83.85 ticks)

Root node processing (before b&c):
  Real time             =    0.13 sec. (89.38 ticks)
Parallel b&c, 8 threads:
  Real time             =    0.00 sec. (0.00 ticks)
  Sync time (average)   =    0.00 sec.
  Wait time (average)   =    0.00 sec.
                          ------------
Total (root+branch&cut) =    0.13 sec. (89.38 ticks)

Root node processing (before b&c):
  Real time             =    0.11 sec. (72.63 ticks)
Parallel b&c, 8 threads:
  Real time             =    0.00 sec. (0.00 ticks)
  Sync time (average)   =    0.00 sec.
  Wait time (average)   =    0.00 sec.
                          ------------
Total (root+branch&cut) =    0.11 sec. (72.63 ticks)

Root node processing (before b&c):
  Real time             =    0.12 sec. (80.65 ticks)
Parallel b&c, 8 threads:
  Real time             =    0.00 sec. (0.00 ticks)
  Sync time (average)   =    0.00 sec.
  Wait time (average)   =    0.00 sec.
                          ------------
Total (root+branch&cut) =    0.12 sec. (80.65 ticks)

Root node processing (before b&c):
  Real time             =    0.08 sec. (51.76 ticks)
Parallel b&c, 8 threads:
  Real time             =    0.00 sec. (0.00 ticks)
  Sync time (average)   =    0.00 sec.
  Wait time (average)   =    0.00 sec.
                          ------------
Total (root+branch&cut) =    0.08 sec. (51.76 ticks)

Root node processing (before b&c):
  Real time             =    0.05 sec. (11.53 ticks)
Parallel b&c, 8 threads:
  Real time             =    0.00 sec. (0.00 ticks)
  Sync time (average)   =    0.00 sec.
  Wait time (average)   =    0.00 sec.
                          ------------
Total (root+branch&cut) =    0.05 sec. (11.53 ticks)
